(set-logic QF_LRA)
(declare-fun T1 () Real )
(declare-fun T2 () Real )
(declare-fun T3 () Real )
(declare-fun T4 () Real )
(declare-fun T5 () Real )
(declare-fun T6 () Real )
(declare-fun Z () Real )
(declare-fun k () Real )
(assert (let
(( $goal (>= Z k) ))
(let
((
$phi ( and 
(or ( <= ( + T1 6 ) T2 ) ( <= ( + T2 24 ) T1 ) )
(or ( <= ( + T1 92 )  ( + T2 24 ) ) ( <= ( + T2 103 )( + T1 6 ) ) )
(or ( <= ( + T1 146 )  ( + T2 103 ) ) ( <= ( + T2 113 )( + T1 92 ) ) )
(or ( <= ( + T1 229 )  ( + T2 113 ) ) ( <= ( + T2 197 )( + T1 146 ) ) )
(or ( <= ( + T1 279 )  ( + T2 197 ) ) ( <= ( + T2 283 )( + T1 229 ) ) )
(or ( <= ( + T1 331 )  ( + T2 283 ) ) ( <= ( + T2 313 )( + T1 279 ) ) )
(or ( <= ( + T1 399 )  ( + T2 313 ) ) ( <= ( + T2 387 )( + T1 331 ) ) )
(or ( <= ( + T1 422 )  ( + T2 387 ) ) ( <= ( + T2 396 )( + T1 399 ) ) )
(or ( <= ( + T1 6 ) T3 ) ( <= ( + T3 82 ) T1 ) )
(or ( <= ( + T1 92 )  ( + T3 82 ) ) ( <= ( + T3 134 )( + T1 6 ) ) )
(or ( <= ( + T1 146 )  ( + T3 134 ) ) ( <= ( + T3 207 )( + T1 92 ) ) )
(or ( <= ( + T1 229 )  ( + T3 207 ) ) ( <= ( + T3 274 )( + T1 146 ) ) )
(or ( <= ( + T1 279 )  ( + T3 274 ) ) ( <= ( + T3 305 )( + T1 229 ) ) )
(or ( <= ( + T1 331 )  ( + T3 305 ) ) ( <= ( + T3 310 )( + T1 279 ) ) )
(or ( <= ( + T1 399 )  ( + T3 310 ) ) ( <= ( + T3 332 )( + T1 331 ) ) )
(or ( <= ( + T1 422 )  ( + T3 332 ) ) ( <= ( + T3 429 )( + T1 399 ) ) )
(or ( <= ( + T1 6 ) T4 ) ( <= ( + T4 4 ) T1 ) )
(or ( <= ( + T1 92 )  ( + T4 4 ) ) ( <= ( + T4 80 )( + T1 6 ) ) )
(or ( <= ( + T1 146 )  ( + T4 80 ) ) ( <= ( + T4 127 )( + T1 92 ) ) )
(or ( <= ( + T1 229 )  ( + T4 127 ) ) ( <= ( + T4 154 )( + T1 146 ) ) )
(or ( <= ( + T1 279 )  ( + T4 154 ) ) ( <= ( + T4 172 )( + T1 229 ) ) )
(or ( <= ( + T1 331 )  ( + T4 172 ) ) ( <= ( + T4 257 )( + T1 279 ) ) )
(or ( <= ( + T1 399 )  ( + T4 257 ) ) ( <= ( + T4 267 )( + T1 331 ) ) )
(or ( <= ( + T1 422 )  ( + T4 267 ) ) ( <= ( + T4 342 )( + T1 399 ) ) )
(or ( <= ( + T1 6 ) T5 ) ( <= ( + T5 22 ) T1 ) )
(or ( <= ( + T1 92 )  ( + T5 22 ) ) ( <= ( + T5 37 )( + T1 6 ) ) )
(or ( <= ( + T1 146 )  ( + T5 37 ) ) ( <= ( + T5 47 )( + T1 92 ) ) )
(or ( <= ( + T1 229 )  ( + T5 47 ) ) ( <= ( + T5 119 )( + T1 146 ) ) )
(or ( <= ( + T1 279 )  ( + T5 119 ) ) ( <= ( + T5 185 )( + T1 229 ) ) )
(or ( <= ( + T1 331 )  ( + T5 185 ) ) ( <= ( + T5 262 )( + T1 279 ) ) )
(or ( <= ( + T1 399 )  ( + T5 262 ) ) ( <= ( + T5 308 )( + T1 331 ) ) )
(or ( <= ( + T1 422 )  ( + T5 308 ) ) ( <= ( + T5 350 )( + T1 399 ) ) )
(or ( <= ( + T1 6 ) T6 ) ( <= ( + T6 56 ) T1 ) )
(or ( <= ( + T1 92 )  ( + T6 56 ) ) ( <= ( + T6 111 )( + T1 6 ) ) )
(or ( <= ( + T1 146 )  ( + T6 111 ) ) ( <= ( + T6 136 )( + T1 92 ) ) )
(or ( <= ( + T1 229 )  ( + T6 136 ) ) ( <= ( + T6 177 )( + T1 146 ) ) )
(or ( <= ( + T1 279 )  ( + T6 177 ) ) ( <= ( + T6 213 )( + T1 229 ) ) )
(or ( <= ( + T1 331 )  ( + T6 213 ) ) ( <= ( + T6 311 )( + T1 279 ) ) )
(or ( <= ( + T1 399 )  ( + T6 311 ) ) ( <= ( + T6 360 )( + T1 331 ) ) )
(or ( <= ( + T1 422 )  ( + T6 360 ) ) ( <= ( + T6 378 )( + T1 399 ) ) )
(or ( <= ( + T2 24 ) T3 ) ( <= ( + T3 82 ) T2 ) )
(or ( <= ( + T2 103 )  ( + T3 82 ) ) ( <= ( + T3 134 )( + T2 24 ) ) )
(or ( <= ( + T2 113 )  ( + T3 134 ) ) ( <= ( + T3 207 )( + T2 103 ) ) )
(or ( <= ( + T2 197 )  ( + T3 207 ) ) ( <= ( + T3 274 )( + T2 113 ) ) )
(or ( <= ( + T2 283 )  ( + T3 274 ) ) ( <= ( + T3 305 )( + T2 197 ) ) )
(or ( <= ( + T2 313 )  ( + T3 305 ) ) ( <= ( + T3 310 )( + T2 283 ) ) )
(or ( <= ( + T2 387 )  ( + T3 310 ) ) ( <= ( + T3 332 )( + T2 313 ) ) )
(or ( <= ( + T2 396 )  ( + T3 332 ) ) ( <= ( + T3 429 )( + T2 387 ) ) )
(or ( <= ( + T2 24 ) T4 ) ( <= ( + T4 4 ) T2 ) )
(or ( <= ( + T2 103 )  ( + T4 4 ) ) ( <= ( + T4 80 )( + T2 24 ) ) )
(or ( <= ( + T2 113 )  ( + T4 80 ) ) ( <= ( + T4 127 )( + T2 103 ) ) )
(or ( <= ( + T2 197 )  ( + T4 127 ) ) ( <= ( + T4 154 )( + T2 113 ) ) )
(or ( <= ( + T2 283 )  ( + T4 154 ) ) ( <= ( + T4 172 )( + T2 197 ) ) )
(or ( <= ( + T2 313 )  ( + T4 172 ) ) ( <= ( + T4 257 )( + T2 283 ) ) )
(or ( <= ( + T2 387 )  ( + T4 257 ) ) ( <= ( + T4 267 )( + T2 313 ) ) )
(or ( <= ( + T2 396 )  ( + T4 267 ) ) ( <= ( + T4 342 )( + T2 387 ) ) )
(or ( <= ( + T2 24 ) T5 ) ( <= ( + T5 22 ) T2 ) )
(or ( <= ( + T2 103 )  ( + T5 22 ) ) ( <= ( + T5 37 )( + T2 24 ) ) )
(or ( <= ( + T2 113 )  ( + T5 37 ) ) ( <= ( + T5 47 )( + T2 103 ) ) )
(or ( <= ( + T2 197 )  ( + T5 47 ) ) ( <= ( + T5 119 )( + T2 113 ) ) )
(or ( <= ( + T2 283 )  ( + T5 119 ) ) ( <= ( + T5 185 )( + T2 197 ) ) )
(or ( <= ( + T2 313 )  ( + T5 185 ) ) ( <= ( + T5 262 )( + T2 283 ) ) )
(or ( <= ( + T2 387 )  ( + T5 262 ) ) ( <= ( + T5 308 )( + T2 313 ) ) )
(or ( <= ( + T2 396 )  ( + T5 308 ) ) ( <= ( + T5 350 )( + T2 387 ) ) )
(or ( <= ( + T2 24 ) T6 ) ( <= ( + T6 56 ) T2 ) )
(or ( <= ( + T2 103 )  ( + T6 56 ) ) ( <= ( + T6 111 )( + T2 24 ) ) )
(or ( <= ( + T2 113 )  ( + T6 111 ) ) ( <= ( + T6 136 )( + T2 103 ) ) )
(or ( <= ( + T2 197 )  ( + T6 136 ) ) ( <= ( + T6 177 )( + T2 113 ) ) )
(or ( <= ( + T2 283 )  ( + T6 177 ) ) ( <= ( + T6 213 )( + T2 197 ) ) )
(or ( <= ( + T2 313 )  ( + T6 213 ) ) ( <= ( + T6 311 )( + T2 283 ) ) )
(or ( <= ( + T2 387 )  ( + T6 311 ) ) ( <= ( + T6 360 )( + T2 313 ) ) )
(or ( <= ( + T2 396 )  ( + T6 360 ) ) ( <= ( + T6 378 )( + T2 387 ) ) )
(or ( <= ( + T3 82 ) T4 ) ( <= ( + T4 4 ) T3 ) )
(or ( <= ( + T3 134 )  ( + T4 4 ) ) ( <= ( + T4 80 )( + T3 82 ) ) )
(or ( <= ( + T3 207 )  ( + T4 80 ) ) ( <= ( + T4 127 )( + T3 134 ) ) )
(or ( <= ( + T3 274 )  ( + T4 127 ) ) ( <= ( + T4 154 )( + T3 207 ) ) )
(or ( <= ( + T3 305 )  ( + T4 154 ) ) ( <= ( + T4 172 )( + T3 274 ) ) )
(or ( <= ( + T3 310 )  ( + T4 172 ) ) ( <= ( + T4 257 )( + T3 305 ) ) )
(or ( <= ( + T3 332 )  ( + T4 257 ) ) ( <= ( + T4 267 )( + T3 310 ) ) )
(or ( <= ( + T3 429 )  ( + T4 267 ) ) ( <= ( + T4 342 )( + T3 332 ) ) )
(or ( <= ( + T3 82 ) T5 ) ( <= ( + T5 22 ) T3 ) )
(or ( <= ( + T3 134 )  ( + T5 22 ) ) ( <= ( + T5 37 )( + T3 82 ) ) )
(or ( <= ( + T3 207 )  ( + T5 37 ) ) ( <= ( + T5 47 )( + T3 134 ) ) )
(or ( <= ( + T3 274 )  ( + T5 47 ) ) ( <= ( + T5 119 )( + T3 207 ) ) )
(or ( <= ( + T3 305 )  ( + T5 119 ) ) ( <= ( + T5 185 )( + T3 274 ) ) )
(or ( <= ( + T3 310 )  ( + T5 185 ) ) ( <= ( + T5 262 )( + T3 305 ) ) )
(or ( <= ( + T3 332 )  ( + T5 262 ) ) ( <= ( + T5 308 )( + T3 310 ) ) )
(or ( <= ( + T3 429 )  ( + T5 308 ) ) ( <= ( + T5 350 )( + T3 332 ) ) )
(or ( <= ( + T3 82 ) T6 ) ( <= ( + T6 56 ) T3 ) )
(or ( <= ( + T3 134 )  ( + T6 56 ) ) ( <= ( + T6 111 )( + T3 82 ) ) )
(or ( <= ( + T3 207 )  ( + T6 111 ) ) ( <= ( + T6 136 )( + T3 134 ) ) )
(or ( <= ( + T3 274 )  ( + T6 136 ) ) ( <= ( + T6 177 )( + T3 207 ) ) )
(or ( <= ( + T3 305 )  ( + T6 177 ) ) ( <= ( + T6 213 )( + T3 274 ) ) )
(or ( <= ( + T3 310 )  ( + T6 213 ) ) ( <= ( + T6 311 )( + T3 305 ) ) )
(or ( <= ( + T3 332 )  ( + T6 311 ) ) ( <= ( + T6 360 )( + T3 310 ) ) )
(or ( <= ( + T3 429 )  ( + T6 360 ) ) ( <= ( + T6 378 )( + T3 332 ) ) )
(or ( <= ( + T4 4 ) T5 ) ( <= ( + T5 22 ) T4 ) )
(or ( <= ( + T4 80 )  ( + T5 22 ) ) ( <= ( + T5 37 )( + T4 4 ) ) )
(or ( <= ( + T4 127 )  ( + T5 37 ) ) ( <= ( + T5 47 )( + T4 80 ) ) )
(or ( <= ( + T4 154 )  ( + T5 47 ) ) ( <= ( + T5 119 )( + T4 127 ) ) )
(or ( <= ( + T4 172 )  ( + T5 119 ) ) ( <= ( + T5 185 )( + T4 154 ) ) )
(or ( <= ( + T4 257 )  ( + T5 185 ) ) ( <= ( + T5 262 )( + T4 172 ) ) )
(or ( <= ( + T4 267 )  ( + T5 262 ) ) ( <= ( + T5 308 )( + T4 257 ) ) )
(or ( <= ( + T4 342 )  ( + T5 308 ) ) ( <= ( + T5 350 )( + T4 267 ) ) )
(or ( <= ( + T4 4 ) T6 ) ( <= ( + T6 56 ) T4 ) )
(or ( <= ( + T4 80 )  ( + T6 56 ) ) ( <= ( + T6 111 )( + T4 4 ) ) )
(or ( <= ( + T4 127 )  ( + T6 111 ) ) ( <= ( + T6 136 )( + T4 80 ) ) )
(or ( <= ( + T4 154 )  ( + T6 136 ) ) ( <= ( + T6 177 )( + T4 127 ) ) )
(or ( <= ( + T4 172 )  ( + T6 177 ) ) ( <= ( + T6 213 )( + T4 154 ) ) )
(or ( <= ( + T4 257 )  ( + T6 213 ) ) ( <= ( + T6 311 )( + T4 172 ) ) )
(or ( <= ( + T4 267 )  ( + T6 311 ) ) ( <= ( + T6 360 )( + T4 257 ) ) )
(or ( <= ( + T4 342 )  ( + T6 360 ) ) ( <= ( + T6 378 )( + T4 267 ) ) )
(or ( <= ( + T5 22 ) T6 ) ( <= ( + T6 56 ) T5 ) )
(or ( <= ( + T5 37 )  ( + T6 56 ) ) ( <= ( + T6 111 )( + T5 22 ) ) )
(or ( <= ( + T5 47 )  ( + T6 111 ) ) ( <= ( + T6 136 )( + T5 37 ) ) )
(or ( <= ( + T5 119 )  ( + T6 136 ) ) ( <= ( + T6 177 )( + T5 47 ) ) )
(or ( <= ( + T5 185 )  ( + T6 177 ) ) ( <= ( + T6 213 )( + T5 119 ) ) )
(or ( <= ( + T5 262 )  ( + T6 213 ) ) ( <= ( + T6 311 )( + T5 185 ) ) )
(or ( <= ( + T5 308 )  ( + T6 311 ) ) ( <= ( + T6 360 )( + T5 262 ) ) )
(or ( <= ( + T5 350 )  ( + T6 360 ) ) ( <= ( + T6 378 )( + T5 308 ) ) )
( <= ( + T1 422 ) Z)
( <= ( + T2 396 ) Z)
( <= ( + T3 429 ) Z)
( <= ( + T4 342 ) Z)
( <= ( + T5 350 ) Z)
( <= ( + T6 378 ) Z)
( >= T1 0 )
( >= T2 0 )
( >= T3 0 )
( >= T4 0 )
( >= T5 0 )
( >= T6 0 )
) )
)(=> $phi $goal))))